treewidth/data/GrayGraph.gr
p tw 54 81
1 2
1 23
1 50
2 13
2 53
13 24
13 45
24 35
24 9
35 46
35 41
46 51
46 25
51 52
51 30
52 53
52 7
53 54
54 3
54 16
3 4
3 48
4 5
4 31
5 6
5 37
6 7
6 14
7 8
8 9
8 22
9 10
10 11
10 38
11 12
11 43
12 14
12 20
14 15
15 16
15 29
16 17
17 18
17 44
18 19
18 50
19 20
19 27
20 21
21 22
21 36
22 23
23 25
25 26
26 27
26 33
27 28
28 29
28 42
29 30
30 31
31 32
32 33
32 40
33 34
34 36
34 49
36 37
37 38
38 39
39 40
39 47
40 41
41 42
42 43
43 44
44 45
45 47
47 48
48 49
49 50
