treewidth/data/GrayGraph.td
c width = 9, time = 44.458862
s td 30 10 54
b 1 5 6 10 21 26 30 41 45 50 54
b 2 6 10 21 26 30 41 45 50 53 54
b 3 6 7 10 21 26 30 41 45 50 53
b 4 7 10 21 26 30 41 45 46 50 53
b 5 7 10 21 24 26 41 45 46 50 53
b 6 7 10 21 23 24 26 45 46 50 53
b 7 1 2 13 23 24 45 50 53
b 8 7 8 9 10 21 22 23 24
b 9 23 25 26 46
b 10 24 35 41 46
b 11 7 30 46 51 52 53
b 12 5 10 21 26 30 31 41 45 50 54
b 13 5 10 21 26 31 41 45 48 50 54
b 14 3 4 5 31 48 54
b 15 5 10 21 26 31 39 41 45 48 50
b 16 5 10 21 26 31 34 39 41 48 50
b 17 26 31 32 33 34 39 40 41
b 18 5 10 21 34 36 37 38 39
b 19 34 48 49 50
b 20 39 45 47 48
b 21 6 10 21 26 30 41 44 45 50 54
b 22 6 10 11 21 26 30 41 44 50 54
b 23 6 11 21 26 28 30 41 44 50 54
b 24 6 11 19 21 26 28 30 44 50 54
b 25 6 11 15 19 21 28 30 44 50 54
b 26 6 11 12 14 15 19 20 21
b 27 15 16 17 18 19 44 50 54
b 28 15 28 29 30
b 29 19 26 27 28
b 30 11 28 41 42 43 44
6 7
6 8
6 9
5 6
5 10
4 5
4 11
3 4
2 3
1 2
13 14
16 17
16 18
16 19
15 16
15 20
13 15
12 13
1 12
25 26
25 27
25 28
24 25
24 29
23 24
23 30
22 23
21 22
1 21
